
Log started (V11.0.0) Thu Apr 17 19:09:12 2008

Tried aggregator 1 time.
Reduced MIP has 150 rows, 5001 columns, and 10050 nonzeros.
Presolve time =    0.03 sec.
Clique table members: 100.
MIP emphasis: balance optimality and feasibility.
MIP search method: dynamic search.
Parallel mode: none, using 1 thread.
Root relaxation solution time =    0.16 sec.

        Nodes                                         Cuts/
   Node  Left     Objective  IInf  Best Integer     Best Node    ItCnt     Gap

*     0+    0                        14980.0000      204.0841      632   98.64%
*     0+    0                          209.0000      204.0841      632    2.35%
      0     0      205.0000    94      209.0000      Fract: 5      647    1.91%
      0     0      205.1057    97      209.0000       Cuts: 6      712    1.86%
      0     0      205.6514   103      209.0000      Cuts: 12      837    1.60%
      0     0      205.7613   119      209.0000      Cuts: 14      889    1.55%
      0     0      205.7843   123      209.0000      Cuts: 16      959    1.54%
      0     0      205.7957   126      209.0000      Cuts: 11     1001    1.53%
      0     0      205.8119   130      209.0000       Cuts: 7     1043    1.53%
      0     0      205.8345   131      209.0000       Cuts: 8     1083    1.51%
      0     0      205.8467   141      209.0000      Cuts: 10     1101    1.51%
*     0+    0                          208.0000      205.8467     1101    1.04%
      0     2      205.8467   141      208.0000      205.8467     1101    1.04%
    100    86      207.0000    67      208.0000      206.0000     5069    0.96%
    200   165      207.0000    58      208.0000      206.0000     7818    0.96%
    300   229      207.0000    62      208.0000      206.0000    10741    0.96%
    400   283      207.0000    58      208.0000      206.0000    13559    0.96%
    500   352      207.0000    95      208.0000      206.0000    17249    0.96%

Clique cuts applied:  6
Cover cuts applied:  4
Implied bound cuts applied:  14
Flow cuts applied:  27
Mixed integer rounding cuts applied:  7
Gomory fractional cuts applied:  17

Solution pool: 3 solutions saved.

MIP - Integer optimal solution:  Objective = 2.0800000000e+002
Solution time =   11.25 sec.  Iterations = 19071  Nodes = 531 (382)


Incumbent solution
Variable Name           Solution Value
Cmax                        208.000000
X_1_17                        1.000000
X_2_23                        1.000000
X_3_32                        1.000000
X_4_33                        1.000000
X_5_27                        1.000000
X_6_11                        1.000000
X_7_31                        1.000000
X_8_19                        1.000000
X_9_21                        1.000000
X_10_2                        1.000000
X_11_14                       1.000000
X_12_28                       1.000000
X_13_29                       1.000000
X_14_24                       1.000000
X_15_20                       1.000000
X_16_41                       1.000000
X_17_4                        1.000000
X_18_43                       1.000000
X_19_22                       1.000000
X_20_38                       1.000000
X_21_40                       1.000000
X_22_42                       1.000000
X_23_18                       1.000000
X_24_1                        1.000000
X_25_50                       1.000000
X_26_47                       1.000000
X_27_21                       1.000000
X_28_45                       1.000000
X_29_6                        1.000000
X_30_46                       1.000000
X_31_26                       1.000000
X_32_29                       1.000000
X_33_49                       1.000000
X_34_26                       1.000000
X_35_39                       1.000000
X_36_13                       1.000000
X_37_39                       1.000000
X_38_4                        1.000000
X_39_19                       1.000000
X_40_12                       1.000000
X_41_2                        1.000000
X_42_34                       1.000000
X_43_36                       1.000000
X_44_6                        1.000000
X_45_15                       1.000000
X_46_22                       1.000000
X_47_48                       1.000000
X_48_45                       1.000000
X_49_16                       1.000000
X_50_37                       1.000000
X_51_25                       1.000000
X_52_28                       1.000000
X_53_43                       1.000000
X_54_37                       1.000000
X_55_8                        1.000000
X_56_30                       1.000000
X_57_16                       1.000000
X_58_7                        1.000000
X_59_12                       1.000000
X_60_7                        1.000000
X_61_1                        1.000000
X_62_36                       1.000000
X_63_41                       1.000000
X_64_18                       1.000000
X_65_5                        1.000000
X_66_31                       1.000000
X_67_5                        1.000000
X_68_33                       1.000000
X_69_11                       1.000000
X_70_32                       1.000000
X_71_14                       1.000000
X_72_15                       1.000000
X_73_30                       1.000000
X_74_9                        1.000000
X_75_50                       1.000000
X_76_9                        1.000000
X_77_8                        1.000000
X_78_27                       1.000000
X_79_49                       1.000000
X_80_40                       1.000000
X_81_38                       1.000000
X_82_44                       1.000000
X_83_25                       1.000000
X_84_3                        1.000000
X_85_35                       1.000000
X_86_20                       1.000000
X_87_35                       1.000000
X_88_17                       1.000000
X_89_24                       1.000000
X_90_48                       1.000000
X_91_3                        1.000000
X_92_10                       1.000000
X_93_42                       1.000000
X_94_34                       1.000000
X_95_13                       1.000000
X_96_10                       1.000000
X_97_46                       1.000000
X_98_47                       1.000000
X_99_23                       1.000000
X_100_44                      1.000000
All other variables in the range 1-5001 are 0.
